========================================================== 
File name: C:\DEGR\assets\definitions\MSRCPSP_Gen\1000_40_1024_5_A.def
Creation date: Sat May 06 09:20:59 CEST 2023
Website: http://imopse.ii.pwr.edu.pl/ 
Reference: 
Myszkowski P. B., Skowronski M. E., Olech L., Oslizlo K., 
Hybrid Ant Colony Optimization in solving Multi-Skill Resource-Constrained Project Scheduling Problem, 
Soft Computing, DOI: DOI 10.1007/s00500-014-1455-x 
========================================================== 
General characteristics: 
Tasks: 1000
Resources: 40
Precedence relations: 1023
Number of skill types: 5
========================================================== 
ResourceID 	 Salary 	 Skills 
1	 	 	80.2	 	 Q0: 2 	  Q1: 1 	  Q2: 1 	 
2	 	 	11.3	 	 Q0: 0 	  Q4: 3 	  Q3: 2 	  Q1: 1 	 
3	 	 	16.4	 	 Q1: 0 	  Q2: 3 	 
4	 	 	28.0	 	 Q3: 2 	  Q4: 1 	  Q1: 3 	  Q0: 1 	 
5	 	 	6.8	 	 Q4: 1 	  Q0: 0 	  Q2: 3 	  Q3: 1 	 
6	 	 	7.2	 	 Q2: 0 	 
7	 	 	16.4	 	 Q2: 0 	  Q4: 0 	  Q0: 1 	  Q3: 3 	 
8	 	 	40.3	 	 Q0: 2 	 
9	 	 	19.9	 	 Q1: 3 	 
10	 	 	69.1	 	 Q3: 0 	  Q1: 3 	  Q4: 2 	  Q2: 1 	 
11	 	 	99.8	 	 Q3: 2 	  Q4: 0 	 
12	 	 	53.4	 	 Q4: 2 	  Q2: 3 	 
13	 	 	91.5	 	 Q4: 1 	  Q0: 1 	  Q2: 0 	 
14	 	 	19.1	 	 Q1: 1 	  Q2: 1 	 
15	 	 	39.7	 	 Q3: 1 	  Q2: 0 	  Q1: 0 	  Q4: 1 	 
16	 	 	45.2	 	 Q3: 3 	  Q0: 1 	  Q1: 3 	  Q2: 0 	 
17	 	 	61.2	 	 Q1: 0 	  Q4: 3 	 
18	 	 	30.5	 	 Q3: 3 	 
19	 	 	44.6	 	 Q4: 3 	 
20	 	 	18.9	 	 Q2: 2 	  Q4: 3 	 
21	 	 	91.9	 	 Q1: 1 	  Q2: 1 	  Q4: 1 	 
22	 	 	20.7	 	 Q4: 0 	  Q3: 3 	 
23	 	 	76.0	 	 Q2: 3 	  Q0: 0 	  Q4: 3 	  Q3: 2 	 
24	 	 	34.6	 	 Q0: 2 	  Q3: 3 	  Q4: 1 	 
25	 	 	87.2	 	 Q2: 0 	 
26	 	 	13.7	 	 Q4: 3 	  Q2: 3 	  Q1: 2 	  Q0: 0 	 
27	 	 	88.9	 	 Q3: 1 	  Q2: 2 	  Q0: 3 	 
28	 	 	97.7	 	 Q0: 2 	  Q3: 2 	  Q1: 1 	  Q4: 1 	 
29	 	 	17.9	 	 Q1: 3 	  Q4: 1 	  Q3: 3 	 
30	 	 	26.8	 	 Q3: 1 	  Q2: 2 	  Q0: 1 	  Q4: 0 	 
31	 	 	34.1	 	 Q0: 1 	  Q2: 3 	  Q3: 1 	  Q1: 0 	 
32	 	 	55.1	 	 Q0: 3 	  Q1: 0 	  Q4: 1 	 
33	 	 	40.9	 	 Q0: 3 	  Q1: 1 	 
34	 	 	94.5	 	 Q1: 0 	  Q2: 1 	  Q4: 3 	 
35	 	 	32.3	 	 Q4: 0 	 
36	 	 	8.0	 	 Q2: 0 	  Q1: 1 	 
37	 	 	52.0	 	 Q4: 0 	  Q2: 2 	 
38	 	 	91.8	 	 Q3: 1 	  Q0: 3 	 
39	 	 	93.4	 	 Q0: 1 	  Q2: 2 	  Q1: 1 	 
40	 	 	82.1	 	 Q4: 3 	  Q2: 2 	 
========================================================== 
TaskID 	 Duration 	 Skill 	 Predecessor IDs 
1	22	Q1:	1
2	25	Q0:	2
3	16	Q3:	0
4	14	Q0:	2
5	35	Q0:	3
6	18	Q2:	2
7	13	Q4:	1
8	13	Q3:	0
9	34	Q4:	1
10	36	Q0:	1
11	28	Q3:	3
12	31	Q1:	3
13	35	Q4:	2
14	27	Q2:	2
15	28	Q0:	3
16	10	Q0:	3
17	19	Q3:	3
18	31	Q4:	3
19	10	Q4:	3
20	16	Q2:	2
21	21	Q0:	3
22	34	Q0:	0
23	35	Q0:	0
24	34	Q0:	0
25	14	Q0:	3
26	24	Q4:	0
27	23	Q1:	3
28	26	Q4:	1
29	13	Q1:	3
30	37	Q2:	1
31	18	Q1:	3
32	33	Q4:	2
33	37	Q2:	0
34	26	Q0:	0
35	26	Q1:	2
36	27	Q4:	2
37	32	Q0:	1
38	15	Q2:	1
39	21	Q4:	0
40	27	Q3:	2
41	36	Q0:	0
42	24	Q3:	3
43	27	Q4:	3
44	15	Q4:	3
45	40	Q1:	3
46	16	Q0:	1
47	40	Q4:	0	36
48	27	Q2:	0
49	14	Q2:	2	7
50	13	Q4:	2
51	11	Q4:	1
52	11	Q2:	2
53	32	Q3:	0	24
54	24	Q3:	2
55	30	Q3:	0
56	31	Q0:	3	31
57	12	Q0:	0
58	36	Q4:	2
59	16	Q2:	0
60	21	Q4:	3
61	12	Q0:	0
62	40	Q3:	2
63	29	Q3:	0	12
64	33	Q0:	0
65	22	Q1:	2
66	34	Q0:	3
67	19	Q4:	1
68	30	Q1:	1
69	32	Q3:	1
70	39	Q0:	1
71	40	Q4:	0	67
72	40	Q1:	0
73	14	Q3:	1
74	9	Q4:	2
75	12	Q0:	3
76	26	Q0:	3
77	9	Q3:	1
78	23	Q3:	1
79	11	Q1:	3
80	32	Q2:	1
81	29	Q2:	3
82	19	Q1:	1
83	28	Q2:	3
84	13	Q1:	3
85	26	Q2:	3
86	33	Q4:	2	65
87	40	Q0:	0
88	28	Q3:	3
89	21	Q1:	3
90	18	Q4:	0
91	19	Q1:	1	71
92	11	Q2:	1
93	20	Q1:	3
94	27	Q0:	2
95	26	Q3:	0
96	24	Q1:	3
97	34	Q4:	3
98	22	Q0:	3
99	40	Q2:	1
100	24	Q0:	0
101	25	Q2:	2
102	27	Q0:	2
103	37	Q0:	3
104	31	Q0:	0
105	39	Q2:	0
106	17	Q0:	1
107	13	Q2:	3
108	35	Q2:	2
109	12	Q1:	1
110	33	Q3:	2
111	36	Q3:	1
112	26	Q2:	1
113	19	Q3:	0
114	40	Q0:	1
115	30	Q0:	1
116	37	Q2:	2
117	13	Q2:	3
118	33	Q3:	1	112
119	24	Q4:	1
120	12	Q0:	1
121	28	Q2:	0
122	30	Q0:	2
123	26	Q3:	2
124	19	Q1:	1
125	11	Q3:	2
126	36	Q2:	1	93	15
127	30	Q1:	1	74
128	9	Q2:	1	127
129	19	Q3:	2
130	16	Q3:	1
131	29	Q4:	1	44	121	23
132	16	Q2:	3
133	37	Q0:	3
134	28	Q4:	3
135	21	Q3:	2
136	38	Q1:	0
137	35	Q3:	2
138	9	Q2:	0
139	13	Q1:	2
140	36	Q3:	1
141	20	Q1:	0	41
142	12	Q2:	3
143	21	Q3:	1
144	13	Q3:	2
145	16	Q2:	3	57
146	12	Q0:	2
147	26	Q2:	1
148	29	Q2:	0
149	32	Q4:	1
150	19	Q0:	1	73
151	18	Q4:	0
152	27	Q0:	3	112
153	9	Q0:	2	132	95
154	14	Q4:	2	128
155	26	Q1:	1	148
156	27	Q0:	0
157	11	Q0:	3
158	21	Q2:	1	36
159	33	Q0:	2	106
160	39	Q3:	0	57	144
161	36	Q1:	2
162	19	Q4:	1	138	62
163	25	Q4:	3
164	14	Q4:	0
165	25	Q1:	3	10
166	10	Q0:	1
167	22	Q0:	2
168	17	Q0:	2
169	14	Q0:	1
170	17	Q0:	0
171	37	Q4:	1	76	104
172	26	Q0:	0
173	15	Q0:	3	146
174	20	Q4:	1
175	30	Q2:	3
176	18	Q3:	0	56
177	12	Q3:	0	72
178	31	Q4:	1
179	29	Q3:	1
180	30	Q1:	3
181	20	Q4:	1
182	17	Q4:	3	53
183	32	Q3:	3
184	13	Q0:	1
185	31	Q2:	1
186	34	Q3:	0
187	26	Q0:	3	173
188	26	Q2:	3	103
189	27	Q3:	2
190	38	Q2:	0
191	18	Q2:	3
192	11	Q4:	2
193	15	Q3:	2
194	14	Q2:	0
195	38	Q2:	1
196	38	Q0:	3
197	34	Q0:	3
198	32	Q4:	2
199	29	Q3:	0
200	38	Q4:	0	146	74
201	23	Q2:	2	116
202	38	Q2:	1
203	16	Q0:	2	197
204	39	Q1:	3
205	34	Q1:	3
206	21	Q1:	3
207	23	Q3:	2
208	39	Q2:	1	181
209	12	Q1:	2
210	11	Q1:	2
211	19	Q3:	1
212	30	Q4:	0
213	35	Q1:	2
214	28	Q4:	1
215	18	Q0:	1
216	39	Q4:	1
217	15	Q1:	1
218	10	Q3:	1	150
219	27	Q4:	3	153
220	20	Q2:	1	158
221	27	Q1:	2
222	19	Q1:	1	215
223	26	Q4:	0
224	9	Q3:	1
225	38	Q2:	0
226	40	Q2:	0
227	14	Q4:	0
228	12	Q3:	2	163
229	11	Q3:	3
230	38	Q1:	1
231	22	Q2:	2
232	11	Q1:	1	170
233	11	Q1:	0	179
234	27	Q0:	0	107	47
235	16	Q2:	2
236	18	Q2:	3
237	9	Q0:	0
238	38	Q2:	2
239	22	Q1:	1
240	14	Q0:	2	138
241	21	Q3:	3
242	12	Q0:	3
243	16	Q2:	2
244	20	Q0:	1	12
245	16	Q0:	1
246	24	Q1:	1	220
247	36	Q1:	1
248	27	Q3:	1	90
249	24	Q1:	3
250	37	Q4:	3
251	21	Q3:	0	104
252	29	Q4:	0
253	10	Q0:	3	20
254	38	Q3:	1
255	39	Q0:	1	106
256	19	Q0:	2	147
257	14	Q1:	1	254
258	11	Q3:	2	60	178
259	37	Q1:	3
260	11	Q1:	3	228
261	14	Q4:	3	170
262	9	Q2:	3	175	44
263	17	Q0:	1
264	18	Q4:	3	80	12
265	17	Q0:	3
266	29	Q2:	0
267	28	Q2:	2
268	17	Q1:	3	247
269	11	Q3:	3
270	14	Q4:	3	162
271	27	Q3:	0
272	17	Q3:	1	156
273	21	Q1:	1
274	10	Q1:	3	66
275	25	Q3:	3
276	21	Q2:	2
277	18	Q2:	2	218
278	36	Q2:	3	92
279	12	Q3:	1
280	29	Q0:	2
281	38	Q3:	3
282	40	Q0:	2
283	17	Q1:	2	234
284	13	Q0:	3
285	31	Q0:	0
286	37	Q2:	3	160
287	25	Q1:	0	22
288	27	Q0:	0
289	38	Q1:	1
290	32	Q3:	0	287
291	34	Q3:	3	73	278
292	36	Q0:	2	59
293	11	Q0:	0	281
294	30	Q1:	0
295	19	Q0:	3	286
296	26	Q2:	2	32	52	118
297	22	Q2:	0
298	27	Q4:	2	235
299	19	Q3:	1
300	34	Q0:	2	119
301	21	Q1:	0
302	18	Q3:	3
303	38	Q4:	1	32
304	11	Q4:	2	206	133
305	39	Q0:	0	49
306	18	Q0:	2
307	31	Q2:	0
308	28	Q1:	3
309	21	Q3:	1	103
310	37	Q1:	1
311	21	Q4:	0
312	36	Q4:	3	10
313	34	Q1:	1	15
314	12	Q1:	2	242
315	28	Q3:	1
316	19	Q3:	3	5
317	33	Q2:	0	125
318	10	Q4:	2	127
319	32	Q1:	1
320	14	Q1:	2
321	19	Q1:	3	23
322	17	Q4:	1	207
323	15	Q3:	3
324	30	Q1:	0	8
325	34	Q2:	2
326	12	Q1:	0
327	18	Q1:	2
328	14	Q4:	3	41	238
329	26	Q2:	1	162
330	30	Q3:	1	238	245
331	23	Q3:	1
332	31	Q3:	2	160
333	21	Q3:	0	202
334	17	Q2:	2
335	22	Q0:	3
336	35	Q3:	2
337	39	Q2:	3	250
338	26	Q4:	1
339	26	Q3:	0
340	22	Q4:	2	86	270
341	27	Q4:	2	114	31	22
342	17	Q4:	3	172
343	26	Q1:	1
344	17	Q1:	2	96
345	33	Q0:	1	340	38
346	38	Q2:	3
347	38	Q4:	0	45	18
348	24	Q4:	0	248
349	17	Q1:	3
350	38	Q2:	0	145	285
351	24	Q3:	0	134
352	33	Q0:	1
353	21	Q2:	0	150
354	15	Q4:	3	8
355	20	Q0:	3	112
356	17	Q4:	2
357	32	Q2:	3
358	30	Q1:	3
359	24	Q4:	1	110	300
360	13	Q4:	0	120
361	39	Q2:	1	121
362	32	Q0:	2
363	18	Q0:	2	70
364	39	Q3:	1	297	46
365	39	Q1:	3
366	13	Q0:	2
367	9	Q4:	0
368	34	Q0:	2	81	272	43	282
369	12	Q4:	1	322	127
370	20	Q4:	2	16
371	18	Q1:	3
372	21	Q1:	2
373	36	Q4:	0	94
374	38	Q0:	3	1	277
375	15	Q3:	1	157	312	296
376	25	Q1:	0	264
377	35	Q4:	0	133
378	37	Q1:	2	98
379	14	Q3:	3	1
380	34	Q2:	1
381	17	Q1:	3	84
382	35	Q4:	3
383	24	Q2:	0
384	25	Q0:	3	371
385	9	Q2:	2
386	38	Q3:	0	120
387	27	Q2:	3	7	242
388	34	Q3:	3	262
389	39	Q3:	1	362
390	28	Q3:	1	260
391	14	Q2:	0	275
392	34	Q1:	1	200
393	21	Q0:	3	96
394	14	Q2:	0
395	35	Q0:	0	217	231
396	39	Q4:	1	284	213
397	35	Q1:	3	292	376
398	14	Q3:	3
399	14	Q0:	1
400	25	Q0:	2	280	390
401	39	Q1:	1
402	27	Q4:	1
403	10	Q1:	0	96
404	17	Q0:	2
405	36	Q0:	0
406	39	Q3:	3
407	15	Q0:	3	49
408	32	Q0:	2
409	21	Q2:	0
410	25	Q3:	0	406
411	16	Q3:	1	57
412	9	Q3:	3
413	31	Q1:	1
414	24	Q0:	1
415	29	Q3:	0
416	18	Q0:	0
417	9	Q0:	0	108
418	18	Q4:	0
419	39	Q2:	0
420	35	Q1:	2	55
421	9	Q4:	2
422	13	Q4:	3
423	15	Q1:	0	332	19
424	25	Q2:	1
425	9	Q0:	0	317
426	23	Q4:	1	52	301
427	17	Q4:	0	262
428	12	Q0:	3	5	425
429	24	Q0:	0	97	291
430	32	Q2:	2
431	25	Q2:	3	45	323	248
432	16	Q4:	3	235	108	237
433	15	Q0:	3	295	199
434	20	Q4:	3
435	24	Q3:	3
436	11	Q4:	1	88
437	28	Q2:	1
438	33	Q0:	1	177	304
439	21	Q1:	3	414	248	3	5
440	21	Q1:	2
441	29	Q1:	3	412	25
442	34	Q4:	2	250	197
443	29	Q1:	2
444	10	Q4:	0	126
445	12	Q2:	1	33
446	33	Q2:	2	206
447	38	Q0:	0	416
448	12	Q1:	3
449	30	Q0:	2
450	36	Q3:	0	282	202
451	40	Q4:	2
452	33	Q0:	3
453	40	Q1:	0
454	34	Q0:	1	21
455	38	Q1:	1	1
456	37	Q1:	2	47
457	14	Q3:	0	174
458	27	Q3:	0	118	155
459	39	Q3:	3	50	141
460	36	Q2:	0	183
461	11	Q0:	0	340
462	40	Q2:	3
463	30	Q4:	1	57	104
464	25	Q2:	0
465	20	Q2:	0	41	96
466	22	Q3:	2
467	34	Q1:	2	220
468	27	Q3:	0	373	334
469	29	Q3:	3	37
470	28	Q3:	3	214
471	24	Q3:	2	433
472	25	Q2:	0	446
473	15	Q2:	1
474	40	Q0:	1
475	26	Q3:	2	81
476	39	Q4:	2	182
477	33	Q4:	2
478	29	Q1:	1	429
479	22	Q0:	3	401	92
480	40	Q2:	0	290	20
481	19	Q3:	0
482	38	Q2:	1	72
483	36	Q4:	0	361	98	329
484	13	Q2:	0	213
485	22	Q2:	0	260	59
486	38	Q3:	0	34	245
487	10	Q0:	0	332	208
488	9	Q0:	3	242
489	39	Q0:	3	132
490	39	Q3:	0	226
491	25	Q1:	3	135
492	24	Q2:	1	44
493	32	Q2:	1	186	139
494	39	Q3:	0	94
495	24	Q2:	1	2
496	8	Q1:	1	30	146
497	20	Q3:	0	108
498	14	Q3:	0	252	432
499	38	Q3:	0	461	124
500	39	Q4:	0	432
501	16	Q0:	2	459
502	15	Q3:	0	228	187
503	23	Q1:	3
504	13	Q4:	0	63
505	38	Q3:	0	25
506	23	Q4:	2
507	13	Q0:	3
508	15	Q3:	2
509	17	Q1:	2	33	507
510	23	Q1:	1	255
511	27	Q0:	1	397
512	34	Q4:	2	321
513	19	Q1:	2	447	374	501
514	18	Q4:	2
515	28	Q1:	3	341	503	3
516	31	Q0:	0	388	139	78
517	10	Q0:	0
518	25	Q4:	1	269
519	18	Q2:	0	268	106
520	10	Q0:	0	397
521	16	Q4:	1	118
522	25	Q3:	1
523	14	Q1:	2	503
524	32	Q1:	3	160
525	10	Q1:	1	216	454
526	13	Q2:	0
527	21	Q4:	3	252	383
528	33	Q4:	1
529	33	Q4:	2
530	28	Q0:	3	29	440
531	39	Q1:	0	485
532	28	Q2:	3
533	15	Q3:	3
534	27	Q1:	0	245
535	34	Q3:	2
536	9	Q4:	2	67	188
537	39	Q1:	0	532	492
538	40	Q0:	0	325
539	38	Q3:	3	308	266
540	16	Q2:	3	164	278
541	39	Q2:	2	158	138	196	34
542	20	Q4:	1	392	284	251
543	34	Q0:	1	318
544	35	Q1:	1	314
545	16	Q3:	0
546	38	Q0:	0
547	33	Q4:	0
548	13	Q3:	3	445	156	267
549	20	Q0:	1	312
550	18	Q4:	3	335	321	401
551	33	Q4:	3	242
552	40	Q2:	3	193
553	37	Q2:	1	141
554	9	Q3:	1	134
555	23	Q0:	3	138	547	533
556	20	Q4:	0	63
557	36	Q0:	2	289
558	38	Q0:	1	251
559	14	Q4:	2	464	86
560	25	Q1:	1	230	424	214
561	39	Q4:	2
562	14	Q4:	0	309	393
563	31	Q3:	2
564	25	Q3:	1
565	24	Q1:	0	64	564
566	23	Q4:	2
567	23	Q0:	3	374	533
568	23	Q1:	3	369	15	7
569	18	Q3:	3
570	17	Q0:	3	461
571	29	Q0:	3	289
572	39	Q2:	3	232	326
573	38	Q1:	2
574	14	Q0:	1	572	197	19	148
575	13	Q3:	1
576	38	Q3:	1	547	266
577	14	Q2:	0	87
578	37	Q2:	3
579	10	Q1:	0	232
580	31	Q4:	2	390	60	345
581	27	Q4:	3	381
582	40	Q0:	2	477
583	36	Q4:	3
584	38	Q0:	2	186	390	461
585	20	Q3:	2
586	31	Q0:	3
587	10	Q4:	1
588	35	Q1:	1
589	20	Q4:	0	574
590	24	Q4:	2	187	562	521
591	30	Q2:	3	153	200	133
592	18	Q4:	0	150	557
593	33	Q4:	1	374	288
594	33	Q3:	0
595	39	Q4:	2	55	194
596	22	Q0:	3
597	21	Q0:	1	228
598	24	Q4:	2	527	254	403
599	29	Q1:	1	116
600	33	Q4:	1
601	17	Q4:	1	348
602	24	Q4:	1	6
603	13	Q4:	3	455	408	235
604	9	Q0:	0	134	159
605	13	Q0:	1	603
606	18	Q1:	0
607	21	Q4:	1	426	421
608	27	Q2:	2
609	27	Q3:	1	527	518	347
610	36	Q1:	2	525	309
611	29	Q0:	1	459
612	23	Q4:	3
613	37	Q2:	0	145
614	38	Q3:	2	182	67	84
615	22	Q4:	2
616	11	Q1:	2	226	34
617	16	Q4:	0	1
618	9	Q0:	1
619	37	Q4:	2	450
620	28	Q0:	1
621	14	Q1:	3
622	39	Q1:	0	114
623	14	Q2:	2	15
624	23	Q1:	1
625	15	Q0:	0	507
626	18	Q2:	1	260	469	419
627	18	Q3:	3	229	179
628	33	Q4:	1	447
629	36	Q2:	0
630	10	Q0:	0	145
631	11	Q4:	0
632	23	Q0:	2	253
633	18	Q1:	3
634	20	Q0:	0	137
635	34	Q4:	0
636	34	Q1:	3
637	37	Q2:	2
638	39	Q2:	3	33
639	19	Q3:	1	218	183
640	30	Q4:	0
641	13	Q4:	3	234	59
642	21	Q1:	2	260	349	469
643	19	Q2:	1	203
644	18	Q1:	0	221	298	522
645	37	Q2:	3
646	33	Q1:	1
647	8	Q2:	3	239	479
648	31	Q2:	3
649	23	Q0:	3
650	34	Q2:	0	42
651	27	Q0:	3	525	135
652	22	Q4:	1	71	599
653	9	Q1:	2	502	403
654	35	Q0:	1	471	20
655	29	Q2:	0
656	28	Q1:	3	249
657	29	Q1:	1	71	356	95
658	17	Q4:	1	188
659	34	Q2:	0	638
660	20	Q0:	2	172	273
661	9	Q3:	1
662	14	Q2:	2	66
663	26	Q2:	2
664	9	Q4:	3	462	211	418
665	16	Q2:	3	432
666	23	Q2:	0	418
667	37	Q0:	3	493	177
668	8	Q1:	2	142	404
669	19	Q1:	1	99
670	31	Q2:	2
671	18	Q4:	0	553	58	650
672	39	Q1:	0	61	52
673	37	Q3:	2	2
674	37	Q1:	1	10
675	12	Q2:	3	433
676	35	Q0:	2
677	18	Q2:	3
678	29	Q3:	1	151
679	25	Q3:	1
680	29	Q3:	3	362
681	19	Q3:	0
682	26	Q0:	1	529	582
683	39	Q1:	1	1	484
684	38	Q2:	3
685	25	Q2:	2	663	400
686	23	Q2:	2	59
687	25	Q3:	0	553
688	13	Q1:	2	278
689	37	Q0:	1	284
690	31	Q0:	2	357
691	30	Q3:	1	258
692	31	Q4:	2
693	14	Q2:	2	396	673
694	29	Q3:	3	237
695	27	Q0:	3	469
696	39	Q4:	1	502	370
697	26	Q3:	3
698	22	Q4:	3	669	182	322
699	19	Q4:	0	554	146
700	21	Q1:	2	503	255
701	21	Q1:	2	643
702	16	Q3:	2	282
703	10	Q4:	0	146	312
704	22	Q3:	2	18
705	29	Q1:	3	397
706	27	Q3:	2	190
707	10	Q4:	0	604
708	32	Q3:	0	381	29
709	37	Q0:	0	226
710	22	Q4:	3	82
711	11	Q3:	0	85	219
712	24	Q2:	2
713	14	Q4:	3	674	413	156
714	11	Q2:	2	547
715	12	Q0:	3	286
716	23	Q2:	3	67
717	9	Q3:	3
718	40	Q2:	1
719	25	Q4:	1	243
720	35	Q1:	1	66	526	381	60
721	39	Q4:	3	611
722	18	Q1:	1	243
723	11	Q1:	1	152
724	19	Q2:	1	367	648
725	29	Q2:	1
726	25	Q2:	0
727	22	Q0:	0	31	334
728	37	Q4:	2
729	12	Q2:	0	375
730	37	Q2:	3	645	558	9
731	33	Q1:	0	192	90
732	31	Q0:	3	139	213
733	9	Q3:	0	113	433
734	16	Q4:	2	30
735	26	Q4:	2	603
736	11	Q0:	2	307
737	33	Q3:	0	91
738	29	Q4:	3	433	197	533
739	19	Q1:	3
740	19	Q0:	0
741	31	Q0:	0	82	469	189
742	17	Q3:	0
743	11	Q1:	2	296	354
744	40	Q2:	3	172	328
745	39	Q3:	3	63
746	21	Q2:	0	310	161
747	19	Q3:	1	530
748	16	Q1:	0	470	480
749	11	Q2:	1	430	355	528
750	27	Q0:	1
751	34	Q1:	1
752	33	Q0:	2	420
753	33	Q1:	3	51
754	33	Q3:	1	480	270	59
755	24	Q4:	2	359
756	23	Q0:	2
757	17	Q4:	1	116	426	490
758	35	Q2:	2	266
759	14	Q4:	1	268	568
760	40	Q4:	2	495	650
761	33	Q3:	3	700
762	21	Q0:	2	706
763	35	Q2:	1
764	40	Q1:	0	448	431
765	23	Q3:	1
766	34	Q2:	0
767	26	Q2:	1	124
768	9	Q0:	0
769	39	Q4:	2	504	132
770	10	Q1:	3	556	97	637
771	23	Q4:	1	425	543
772	18	Q3:	2	175
773	24	Q4:	0	739	543
774	24	Q2:	1	405	17	550
775	26	Q1:	3
776	24	Q0:	0	640	760	261
777	21	Q4:	2	389
778	26	Q1:	2
779	27	Q4:	0	55
780	29	Q3:	0	32
781	35	Q4:	3
782	28	Q0:	1	172
783	24	Q1:	1	495	236	134
784	20	Q4:	0	461	565	179	516	334
785	14	Q4:	2	114
786	26	Q4:	1	708
787	40	Q4:	3	333	150
788	10	Q0:	0	61	166	462	533
789	39	Q3:	2	243	396
790	21	Q4:	2	643
791	22	Q4:	1	226	142
792	33	Q0:	2
793	34	Q4:	3	285	691
794	27	Q0:	2	171	331	525
795	25	Q0:	3	314
796	37	Q2:	0
797	39	Q1:	3	253	209	784
798	35	Q4:	0	284	747	149
799	38	Q1:	1	73	126
800	30	Q4:	0	608	486	578
801	27	Q0:	1	140	219
802	40	Q2:	0	657	251	557	606
803	11	Q2:	2	73	682	273	18	474
804	35	Q3:	0	448	787	116	333	152
805	25	Q1:	3	346	523
806	25	Q2:	0	414	150	714	52
807	31	Q0:	1
808	36	Q4:	1	758
809	10	Q4:	0	267
810	19	Q4:	1	217	279	374
811	15	Q1:	1	567	252
812	39	Q2:	0	805
813	35	Q1:	3
814	20	Q2:	3
815	14	Q3:	2
816	36	Q0:	3	758	133	621	763
817	19	Q2:	2
818	33	Q2:	2	239	137
819	12	Q0:	2	616	240
820	35	Q4:	0
821	24	Q3:	3	605
822	12	Q2:	0
823	35	Q0:	2
824	39	Q0:	3
825	9	Q2:	1	59
826	27	Q0:	1	228	575	561
827	12	Q3:	1	659	411
828	30	Q4:	3	474	120	55	230
829	29	Q1:	0	626	331
830	31	Q4:	1	200	80
831	24	Q3:	1	36
832	17	Q0:	1	297
833	40	Q2:	1	619
834	13	Q1:	2	330
835	26	Q2:	0	552	86	162
836	34	Q4:	2	422
837	20	Q2:	3
838	18	Q3:	1	532	633
839	39	Q2:	3	615
840	25	Q1:	2	749	503	664
841	38	Q1:	0	70
842	26	Q2:	2	728	386	255	228
843	27	Q4:	0	303
844	40	Q1:	3	86
845	11	Q4:	3	443
846	38	Q1:	3
847	39	Q3:	2	687	64	586	153
848	38	Q2:	2	169
849	14	Q3:	2	273	571
850	15	Q1:	2	223	92
851	27	Q0:	2	308
852	30	Q4:	1	139	808	586
853	28	Q3:	1	333	68
854	18	Q3:	0
855	14	Q1:	2	224
856	31	Q4:	0	625	526
857	25	Q3:	2	171
858	38	Q0:	1	219	481
859	40	Q4:	0	329
860	36	Q1:	1	619	86	826
861	30	Q2:	0
862	22	Q3:	1
863	13	Q0:	3	253	405
864	28	Q0:	1	98	96	627	153
865	13	Q3:	2	51	373	776
866	36	Q3:	3	788	426
867	12	Q2:	0	628	263
868	19	Q0:	1	671	292
869	16	Q1:	3
870	33	Q0:	2	3	31
871	33	Q3:	2	804	515	49	223
872	31	Q0:	2	819	284	847	679	612	775
873	13	Q0:	1
874	9	Q4:	2	273	190	453	659
875	24	Q0:	3	151
876	21	Q0:	2	78	59
877	16	Q2:	0	687	35	636
878	17	Q3:	2	257	278
879	26	Q3:	1	602	788	321
880	26	Q1:	1	524	49
881	18	Q1:	1
882	36	Q1:	0	165
883	31	Q1:	1	185	64	139
884	22	Q4:	1	865	236
885	20	Q0:	0
886	26	Q3:	3	173	541
887	25	Q1:	3	517
888	11	Q4:	2	168	857
889	24	Q3:	3	786	242
890	17	Q0:	3	583	745
891	12	Q2:	2	523
892	32	Q3:	3	189	556
893	28	Q3:	3
894	36	Q4:	0
895	40	Q2:	0	540	550
896	12	Q2:	3	180	223	669	870	821
897	31	Q0:	1	305
898	31	Q4:	0	205	652	307	390
899	13	Q2:	0
900	30	Q2:	0	236	711
901	21	Q2:	2	776	804	345	228
902	33	Q2:	0	721
903	14	Q2:	3	673	769
904	14	Q3:	0
905	9	Q4:	2	116
906	30	Q3:	3	793	692
907	20	Q0:	2	542	651	247	860
908	39	Q4:	0	403	432	654
909	15	Q4:	3	33	723	251	571
910	29	Q1:	3	122	294	392	377
911	29	Q3:	2	626	631
912	12	Q1:	0	493	872	725
913	37	Q4:	3	212
914	27	Q3:	3
915	30	Q2:	0	682
916	33	Q3:	0	68	449	857
917	28	Q1:	1	874	469	869
918	21	Q0:	1	908	50
919	33	Q4:	0	260
920	30	Q0:	2	307
921	20	Q0:	0
922	35	Q4:	0
923	17	Q3:	2	831
924	32	Q3:	3	200
925	11	Q2:	1	824	67	876
926	10	Q2:	0	870	755
927	40	Q4:	1	115
928	10	Q0:	2	825	231	42
929	12	Q0:	2	320	227	775	154	499	854	624
930	16	Q4:	2	719	846
931	36	Q1:	1	788	684	137	573
932	13	Q4:	3	876
933	37	Q2:	2
934	40	Q1:	1	591	774	262	276	386
935	19	Q1:	2	505	896
936	39	Q2:	3	232	595	428
937	13	Q3:	3	172
938	34	Q3:	2	58	239	747
939	37	Q1:	0	327	875
940	13	Q3:	1	121	168	308	323
941	33	Q4:	3	730	818	207
942	15	Q0:	2	451	915
943	29	Q3:	3	406
944	37	Q0:	3	505	655
945	15	Q0:	1	615	211
946	38	Q3:	0	14
947	19	Q1:	1	497	797	781	618
948	17	Q4:	1
949	10	Q2:	1
950	33	Q2:	0	640	886	195
951	19	Q4:	0	814
952	30	Q4:	3
953	11	Q1:	0
954	29	Q0:	3	692
955	12	Q0:	3	228	30
956	12	Q0:	2	534	96	924
957	29	Q0:	0	363	520	554	134	747
958	13	Q1:	1	951	335	597
959	32	Q2:	2	778	232
960	10	Q4:	3
961	39	Q2:	3	950	432	680
962	10	Q0:	0	18
963	9	Q2:	3	348	886
964	26	Q1:	2	30
965	22	Q1:	2
966	18	Q3:	1	620	555
967	21	Q2:	2	101
968	20	Q3:	0	514	298	378	848
969	10	Q0:	0	657	756	19
970	31	Q3:	0
971	10	Q1:	2	138	530	273
972	9	Q2:	0
973	36	Q2:	3	497
974	35	Q0:	2	222	798	665	591
975	25	Q1:	3	418	531	746
976	28	Q4:	1	884	203
977	38	Q0:	1
978	16	Q1:	2	464	804	636
979	12	Q4:	2
980	40	Q0:	1	230	130	873
981	9	Q0:	3
982	16	Q0:	3	55	379
983	9	Q3:	2	407	712	51	20
984	40	Q1:	3	9	751
985	35	Q3:	2	130	927
986	24	Q2:	1	220	487
987	35	Q2:	1	968	411	684
988	40	Q1:	2	186
989	9	Q0:	3	872	931	731
990	20	Q0:	3	882	759
991	21	Q0:	0	579	123
992	37	Q4:	1
993	33	Q1:	2	168	154	227	923
994	38	Q2:	3	830	636	115
995	38	Q1:	0	76	75	331	584	340
996	25	Q2:	3	607	377
997	31	Q1:	1	129
998	23	Q2:	3	494
999	23	Q4:	1	614	262	790
1000	24	Q0:	1	26
========================================================== 